15 40
25
12 7 3 6
7 7 8 33
1 7 14 21
5 1 3 39
2 3 2 21
2 6 0 18
2 7 3 31
5 2 10 28
1 3 2 18
1 6 14 0
12 6 3 13
9 6 5 0
12 2 3 19
2 7 3 24
10 3 5 30
4 1 10 27
5 1 3 38
3 16 0 24
3 5 5 33
2 4 3 2
5 2 0 0
10 3 4 21
9 3 5 24
3 16 0 2
5 3 5 27
